Translating instance to solver...

Set parameter TimeLimit to value 28800
Gurobi Optimizer version 11.0.2 build v11.0.2rc0 (linux64 - "Ubuntu 22.04.4 LTS")

CPU model: Intel(R) Xeon(R) Gold 5120 CPU @ 2.20GHz, instruction set [SSE2|AVX|AVX2|AVX512]
Thread count: 28 physical cores, 56 logical processors, using up to 28 threads

Academic license 2463511 - for non-commercial use only - registered to lu___@cefet-rj.br
Optimize a model with 40945 rows, 21383 columns and 96975 nonzeros
Model fingerprint: 0x64bfcd98
Variable types: 1 continuous, 21382 integer (21340 binary)
Coefficient statistics:
  Matrix range     [1e+00, 1e+05]
  Objective range  [3e-01, 8e-01]
  Bounds range     [1e+00, 4e+01]
  RHS range        [1e+00, 6e+01]
Presolve removed 32334 rows and 17818 columns
Presolve time: 0.58s
Presolved: 8611 rows, 3565 columns, 25866 nonzeros
Variable types: 0 continuous, 3565 integer (3524 binary)

Root relaxation: objective 1.195566e+00, 1271 iterations, 0.06 seconds (0.07 work units)

    Nodes    |    Current Node    |     Objective Bounds      |     Work
 Expl Unexpl |  Obj  Depth IntInf | Incumbent    BestBd   Gap | It/Node Time

     0     0    1.19557    0   62          -    1.19557      -     -    0s
     0     0    1.35414    0  237          -    1.35414      -     -    1s
     0     0    1.36767    0  216          -    1.36767      -     -    1s
H    0     0                       3.6353460    1.36767  62.4%     -    2s
H    0     0                       1.5117820    1.36767  9.53%     -    2s
     0     0    1.36767    0  146    1.51178    1.36767  9.53%     -    2s
     0     0    1.36767    0  139    1.51178    1.36767  9.53%     -    2s
     0     0    1.36767    0  122    1.51178    1.36767  9.53%     -    2s
     0     0    1.36767    0  299    1.51178    1.36767  9.53%     -    2s
     0     0    1.36767    0   68    1.51178    1.36767  9.53%     -    2s
     0     0    1.36767    0   92    1.51178    1.36767  9.53%     -    2s
     0     0    1.36767    0   95    1.51178    1.36767  9.53%     -    2s
     0     0    1.36767    0   61    1.51178    1.36767  9.53%     -    2s
     0     0    1.36767    0  102    1.51178    1.36767  9.53%     -    3s
     0     0    1.36767    0   95    1.51178    1.36767  9.53%     -    3s
     0     0    1.36767    0   87    1.51178    1.36767  9.53%     -    3s
     0     0    1.36767    0   87    1.51178    1.36767  9.53%     -    3s
     0     0    1.36767    0  208    1.51178    1.36767  9.53%     -    3s
     0     0    1.36767    0  257    1.51178    1.36767  9.53%     -    3s
     0     0    1.36767    0  195    1.51178    1.36767  9.53%     -    3s
     0     0    1.36767    0  195    1.51178    1.36767  9.53%     -    3s
     0     0    1.36767    0  196    1.51178    1.36767  9.53%     -    3s
     0     0    1.36767    0  198    1.51178    1.36767  9.53%     -    3s
     0     0    1.36767    0  196    1.51178    1.36767  9.53%     -    3s
     0     0    1.36767    0  103    1.51178    1.36767  9.53%     -    4s
     0     0    1.36767    0  129    1.51178    1.36767  9.53%     -    4s
     0     0    1.36767    0  303    1.51178    1.36767  9.53%     -    5s
     0     0    1.36767    0  322    1.51178    1.36767  9.53%     -    5s
     0     0    1.36767    0  282    1.51178    1.36767  9.53%     -    5s
     0     0    1.36767    0  127    1.51178    1.36767  9.53%     -    5s
     0     0    1.36767    0  203    1.51178    1.36767  9.53%     -    5s
     0     0    1.36767    0  199    1.51178    1.36767  9.53%     -    5s
     0     0    1.36767    0  226    1.51178    1.36767  9.53%     -    5s
     0     0    1.36767    0  218    1.51178    1.36767  9.53%     -    5s
     0     0    1.36767    0  214    1.51178    1.36767  9.53%     -    5s
     0     0    1.36767    0  157    1.51178    1.36767  9.53%     -    6s
     0     0    1.36767    0  142    1.51178    1.36767  9.53%     -    6s
     0     0    1.39260    0  202    1.51178    1.39260  7.88%     -    6s
     0     0    1.39260    0  154    1.51178    1.39260  7.88%     -    6s
     0     0    1.44119    0  166    1.51178    1.44119  4.67%     -    7s
     0     0    1.50671    0  253    1.51178    1.50671  0.34%     -    7s
     0     0    1.50671    0  256    1.51178    1.50671  0.34%     -    7s
     0     0    1.50671    0  250    1.51178    1.50671  0.34%     -    7s

Cutting planes:
  Learned: 55
  Gomory: 2
  Lift-and-project: 1
  Implied bound: 54
  MIR: 40
  Zero half: 5
  RLT: 67
  Relax-and-lift: 39
  BQP: 43

Explored 1 nodes (25300 simplex iterations) in 7.85 seconds (5.44 work units)
Thread count was 28 (of 56 available processors)

Solution count 2: 1.51178 3.63535 

Optimal solution found (tolerance 1.00e-04)
Best objective 1.511782000000e+00, best bound 1.511782000000e+00, gap 0.0000%

Solver Wallclock Time (for this epsilon): 7.868611097335815 s
Python wallclock Time (for this epsilon): 10.859218120574951 s


Total Elapsed Time (since program call): 126.60412502288818 s

Results:

I = 1.511782 mA
C = 68.0 points
C ~= 27.200000000000003 km^2

Minimum Epsilon for this instance = 9
Maximum Epsilon for this instance = 98

Current Epsilon = 63


Preprocessing Time (for this epsilon): 0.0067865848541259766 s


Updated solution vectors:
sol_I = [-0.611782,-0.9176730000000001,-1.061782,-1.061782,-1.0617818536323502,-1.061782,-1.511782]
sol_C = [11.0,19.0,51.0,51.0,48.99999437626569,54.0,68.0]
sol_eps = [9,18,27,36,45,54,63]
sol_gap = [0.0,0.0,0.0,0.0,0.0,0.0,0.0]
